[2026-03-01T23:54:47] Logging to: /run/media/saveas/Secondary-Storage/Masters/CS234/CS234_Reinforcement_Learning/Final Project/CS234_Final_Project/results/trajectory_optimization/nlp/TRACK5_330m/N120/run_trajopt_demo_output.log
======================================================================
IPOPT TRAJECTORY OPTIMIZATION DEMO (SINGLE STAGE)
======================================================================

1. Loading track: /run/media/saveas/Secondary-Storage/Masters/CS234/CS234_Reinforcement_Learning/Final Project/CS234_Final_Project/maps/TRACK5_330m.mat
   Track length: 332.6 m

2. Creating vehicle model...
   Vehicle: SingleTrackModel(VW_Golf_GTI, weight_transfer=enabled)

3. Loaded obstacles from map: 0

4. Setup:
   N = 120
   ds = 2.77 m
   Obstacle subsamples/segment = 11
   Obstacle enforce midpoints = True
   Obstacle use slack = False
   Track buffer = 0.00 m
   lambda_u = 0.005
   vehicle_radius_m = 0.00
   eps_s = 0.100, eps_kappa = 0.050
   Solver path = Python/CasADi (IPOPT)

======================================================================
SINGLE STAGE: COMBINED OBJECTIVE (ACCEPTANCE-GATED)
======================================================================
Acceptance gates: success=True, max_slack<=0.000e+00, min_clearance>=-0.0050 m
Acceptance policy: practical epsilon mode (allows tiny negative dense clearance).
Initializer: obstacle_aware_init=True, sigma=8.00 m, margin=0.50 m

Attempt 1/4: baseline
  N=120, ds=2.772 m, subsamples=11, obstacle_clearance_m=0.300
Exception of type: DYNAMIC_LIBRARY_FAILURE in file "Common/IpLibraryLoader.cpp" at line 72:
 Exception message: libhsl.so: cannot open shared object file: No such file or directory

EXIT: Library loading failure.
      solver  :   t_proc      (avg)   t_wall      (avg)    n_eval
       total  | 319.00us (319.00us) 320.69us (320.69us)         1
Solver failed with ipopt.linear_solver=ma57: Error in Opti::solve [OptiNode] at .../casadi/core/optistack.cpp:217:
.../casadi/core/optistack_internal.cpp:1338: Assertion "return_success(accept_limit)" failed:
Solver failed. You may use opti.debug.value to investigate the latest values of variables. return_status is 'Invalid_Option'
Retrying with IPOPT default linear solver.

******************************************************************************
This program contains Ipopt, a library for large-scale nonlinear optimization.
 Ipopt is released as open source code under the Eclipse Public License (EPL).
         For more information visit https://github.com/coin-or/Ipopt
******************************************************************************

This is Ipopt version 3.14.11, running with linear solver MUMPS 5.4.1.

Number of nonzeros in equality constraint Jacobian...:    13219
Number of nonzeros in inequality constraint Jacobian.:     1452
Number of nonzeros in Lagrangian Hessian.............:     5080

Total number of variables............................:     1210
                     variables with only lower bounds:        0
                variables with lower and upper bounds:        0
                     variables with only upper bounds:        0
Total number of equality constraints.................:      970
Total number of inequality constraints...............:     1089
        inequality constraints with only lower bounds:      726
   inequality constraints with lower and upper bounds:        0
        inequality constraints with only upper bounds:      363

iter    objective    inf_pr   inf_du lg(mu)  ||d||  lg(rg) alpha_du alpha_pr  ls
   0  3.3260445e+01 4.38e-01 1.07e+00  -1.0 0.00e+00    -  0.00e+00 0.00e+00   0
   1  3.3211275e+01 3.84e-01 9.32e+01  -1.0 7.53e+00   2.0 6.77e-01 1.25e-01h  4
   2  3.3190117e+01 3.36e-01 1.86e+03  -1.0 6.70e+00   3.3 8.88e-01 1.25e-01h  4
   3  3.3188509e+01 3.15e-01 3.50e+04  -1.0 5.89e+00   4.7 1.00e+00 1.25e-01h  4
   4  3.3196115e+01 3.25e-01 7.20e+04  -1.0 5.17e+00   5.1 1.00e+00 6.25e-02h  5
   5  3.3214611e+01 3.97e-01 2.58e+05  -1.0 4.81e+00   5.5 1.00e+00 1.25e-01h  4
   6  3.3240094e+01 4.39e-01 6.75e+05  -1.0 4.16e+00   5.9 1.00e+00 1.25e-01h  4
   7  3.3265838e+01 4.75e-01 7.07e+05  -1.0 4.12e+00   5.5 1.00e+00 6.25e-02h  5
   8  3.3336876e+01 6.39e-01 1.18e+06  -1.0 3.38e+00   5.9 1.00e+00 2.50e-01h  3
   9  3.3399070e+01 6.78e-01 2.10e+06  -1.0 2.35e+00   6.3 1.00e+00 2.50e-01h  3
iter    objective    inf_pr   inf_du lg(mu)  ||d||  lg(rg) alpha_du alpha_pr  ls
  10  3.3733363e+01 1.90e+00 4.28e+06  -1.0 1.63e+00   5.8 1.00e+00 1.00e+00H  1
  11  3.3741926e+01 1.02e+00 1.79e+07  -1.0 4.22e-01   6.3 1.00e+00 1.00e+00h  1
  12  3.3746764e+01 3.22e-01 4.10e+06  -1.0 2.41e-01   6.7 1.00e+00 1.00e+00h  1
  13  3.3750558e+01 4.42e-02 1.73e+06  -1.0 9.86e-02   6.2 1.00e+00 1.00e+00h  1
  14  3.3751092e+01 7.87e-04 9.67e+04  -1.0 1.35e-02   5.7 1.00e+00 1.00e+00h  1
  15  3.3751095e+01 1.63e-07 8.05e+01  -1.0 5.80e-05   5.3 1.00e+00 1.00e+00h  1
  16  3.3751094e+01 4.71e-11 9.97e-02  -1.0 1.67e-06   4.8 1.00e+00 1.00e+00h  1
  17  3.3751093e+01 4.76e-12 1.58e-02  -2.5 7.89e-07   4.3 1.00e+00 1.00e+00h  1
  18  3.3751091e+01 3.39e-11 1.55e-02  -3.8 2.32e-06   3.8 1.00e+00 1.00e+00h  1
  19  3.3751084e+01 3.05e-10 1.55e-02  -3.8 6.97e-06   3.3 1.00e+00 1.00e+00h  1
iter    objective    inf_pr   inf_du lg(mu)  ||d||  lg(rg) alpha_du alpha_pr  ls
  20  3.3751063e+01 2.75e-09 1.55e-02  -3.8 2.09e-05   2.9 1.00e+00 1.00e+00h  1
  21  3.3751000e+01 2.47e-08 1.55e-02  -3.8 6.27e-05   2.4 1.00e+00 1.00e+00h  1
  22  3.3750812e+01 2.22e-07 1.55e-02  -3.8 1.88e-04   1.9 1.00e+00 1.00e+00h  1
  23  3.3750247e+01 1.98e-06 1.55e-02  -3.8 5.65e-04   1.4 1.00e+00 1.00e+00h  1
  24  3.3748553e+01 1.74e-05 1.55e-02  -3.8 1.69e-03   1.0 1.00e+00 1.00e+00h  1
  25  3.3743476e+01 1.46e-04 1.54e-02  -3.8 5.08e-03   0.5 1.00e+00 1.00e+00h  1
  26  3.3728284e+01 1.05e-03 1.54e-02  -3.8 1.52e-02   0.0 1.00e+00 1.00e+00h  1
  27  3.3683049e+01 5.36e-03 1.53e-02  -3.8 4.52e-02  -0.5 1.00e+00 1.00e+00h  1
  28  3.3549416e+01 2.15e-02 1.51e-02  -3.8 1.34e-01  -0.9 1.00e+00 1.00e+00h  1
  29  3.3158861e+01 1.55e-01 2.23e-02  -3.8 3.91e-01  -1.4 1.00e+00 1.00e+00h  1
iter    objective    inf_pr   inf_du lg(mu)  ||d||  lg(rg) alpha_du alpha_pr  ls
  30  3.2066410e+01 1.04e+00 1.37e-02  -3.8 1.09e+00  -1.9 1.00e+00 1.00e+00h  1
  31  3.1716941e+01 3.56e-01 1.39e-02  -3.8 4.16e-01  -1.5 1.00e+00 1.00e+00h  1
  32  3.0653836e+01 4.76e-01 1.18e-02  -3.8 1.06e+00  -2.0 1.00e+00 1.00e+00h  1
  33  2.8077591e+01 4.00e+00 1.18e-02  -3.8 2.86e+00  -2.4 1.00e+00 9.66e-01f  1
  34  2.6729474e+01 3.17e+00 1.06e-02  -3.8 6.35e+00  -2.9 5.73e-01 2.66e-01h  1
  35  2.5919852e+01 3.01e+00 9.96e-03  -3.8 1.28e+01  -3.4 3.09e-01 8.84e-02h  1
  36  2.5457231e+01 2.74e+00 3.79e-02  -3.8 6.56e+00  -3.0 4.01e-01 1.13e-01h  1
  37  2.4485865e+01 4.33e+00 9.79e-02  -3.8 1.37e+01  -3.4 4.92e-01 1.32e-01h  1
  38  2.3647794e+01 5.69e+00 8.75e-02  -3.8 3.36e+01  -3.9 1.15e-01 8.93e-02h  1
  39  2.2996923e+01 5.32e+00 1.80e-01  -3.8 1.77e+01  -3.5 1.25e-01 1.27e-01h  1
iter    objective    inf_pr   inf_du lg(mu)  ||d||  lg(rg) alpha_du alpha_pr  ls
  40  2.3018704e+01 4.98e+00 1.69e-01  -3.8 1.80e+00  -1.3 9.21e-03 6.54e-02h  1
  41  2.3163544e+01 3.43e+00 3.66e-01  -3.8 1.58e+00  -0.8 1.28e-01 3.95e-01h  1
  42  2.3184501e+01 3.29e+00 9.20e-01  -3.8 1.28e+00   0.5 7.09e-02 8.21e-02h  1
  43  2.3195996e+01 3.17e+00 1.90e+01  -3.8 1.35e+00   0.9 6.27e-01 4.41e-02h  1
  44  2.3272407e+01 2.30e+00 8.85e+00  -3.8 1.62e+00   0.4 7.38e-01 2.98e-01h  1
  45  2.3444019e+01 2.41e+00 9.87e+00  -3.8 1.62e+00  -0.0 1.21e-01 8.90e-01h  1
  46  2.3452947e+01 2.13e+00 8.73e+00  -3.8 1.67e+00   0.4 8.54e-01 1.17e-01h  1
  47  2.3452999e+01 2.13e+00 3.07e+01  -3.8 1.48e+00   0.8 3.78e-01 6.40e-04h  1
  48  2.3542722e+01 5.88e-01 9.34e+00  -3.8 1.53e+00   0.3 9.11e-01 1.00e+00h  1
  49  2.3557519e+01 6.86e-01 3.33e+00  -3.8 3.74e-01  -0.1 1.00e+00 1.00e+00h  1
iter    objective    inf_pr   inf_du lg(mu)  ||d||  lg(rg) alpha_du alpha_pr  ls
  50  2.3552082e+01 1.29e+00 1.71e+00  -3.8 7.82e-01  -0.6 1.00e+00 5.00e-01h  2
  51  2.3547794e+01 5.65e-01 2.04e+00  -3.8 1.76e-01  -0.2 6.91e-01 1.00e+00h  1
  52  2.3536289e+01 3.96e-02 7.53e-02  -3.8 3.84e-02  -0.7 1.00e+00 1.00e+00h  1
  53  2.3099709e+01 8.13e+00 7.06e-02  -3.8 8.75e+01    -  1.05e-01 6.38e-02f  1
  54  2.2933135e+01 7.87e+00 6.82e-02  -3.8 1.23e+01    -  4.12e-01 3.41e-02h  1
  55  2.2288425e+01 6.69e+00 8.85e-02  -3.8 1.03e+01    -  7.08e-01 1.64e-01h  1
  56  2.2074513e+01 6.05e+00 8.89e-02  -3.8 1.35e+01    -  4.75e-01 9.49e-02h  1
  57  2.1637930e+01 4.47e+00 6.35e-02  -3.8 6.92e+00    -  4.62e-02 2.60e-01h  1
  58  2.1508671e+01 3.71e+00 5.70e-02  -3.8 8.62e+00    -  6.01e-01 1.69e-01h  1
  59  2.1395233e+01 2.66e+00 4.61e-02  -3.8 1.34e+01    -  3.65e-02 2.75e-01h  1
iter    objective    inf_pr   inf_du lg(mu)  ||d||  lg(rg) alpha_du alpha_pr  ls
  60  2.1425481e+01 2.04e+00 5.23e-02  -3.8 1.27e+00  -1.1 1.52e-01 2.33e-01h  1
  61  2.1419603e+01 1.92e+00 4.91e-02  -3.8 2.33e+00    -  1.21e-01 6.04e-02h  1
  62  2.1403433e+01 1.42e+00 3.66e-02  -3.8 2.61e+00    -  1.46e-01 2.59e-01h  1
  63  2.1396269e+01 2.24e+00 2.55e-02  -3.8 4.92e+00    -  8.65e-01 3.16e-01h  1
  64  2.1445786e+01 1.52e+00 6.36e-02  -3.8 7.02e-01  -1.6 8.32e-02 8.88e-01h  1
  65  2.1453707e+01 7.12e-01 4.42e-02  -3.8 9.24e-01  -2.1 1.00e+00 7.42e-01h  1
  66  2.1453999e+01 3.57e-01 8.68e-03  -3.8 2.32e-01  -1.7 1.00e+00 1.00e+00h  1
  67  2.1435620e+01 6.00e-01 5.53e-03  -3.8 5.22e+00    -  4.25e-01 2.33e-01h  1
  68  2.1431686e+01 4.52e-01 1.00e-02  -3.8 1.95e-01  -2.1 1.00e+00 1.00e+00h  1
  69  2.1423172e+01 1.81e-01 3.87e-03  -3.8 4.83e-01  -2.6 1.00e+00 8.84e-01h  1
iter    objective    inf_pr   inf_du lg(mu)  ||d||  lg(rg) alpha_du alpha_pr  ls
  70  2.1422704e+01 6.18e-01 2.76e-02  -3.8 6.34e-01  -2.2 3.94e-02 5.65e-01h  1
  71  2.1418935e+01 5.48e-01 2.45e-02  -3.8 1.89e+00    -  2.08e-01 1.12e-01h  1
  72  2.1417675e+01 4.93e-01 2.20e-02  -3.8 2.75e+00    -  3.12e-01 1.04e-01f  1
  73  2.1411238e+01 2.35e-01 1.85e-02  -3.8 7.49e-01    -  1.00e+00 5.13e-01f  1
  74  2.1408944e+01 5.86e-01 1.04e-02  -3.8 1.03e+00    -  1.00e+00 1.00e+00h  1
  75  2.1408749e+01 2.15e-02 1.72e-03  -3.8 3.62e-01  -2.7 1.00e+00 1.00e+00h  1
  76  2.1408553e+01 3.78e-02 5.85e-04  -3.8 1.02e-01  -2.2 1.00e+00 1.00e+00h  1
  77  2.1407878e+01 8.81e-01 1.73e-03  -3.8 3.78e-01  -2.7 1.00e+00 1.00e+00h  1
  78  2.1407701e+01 1.02e-01 1.93e-03  -3.8 2.25e-01  -2.3 1.00e+00 1.00e+00h  1
  79  2.1407351e+01 9.23e-02 3.44e-04  -3.8 2.04e-01  -2.8 1.00e+00 1.00e+00h  1
iter    objective    inf_pr   inf_du lg(mu)  ||d||  lg(rg) alpha_du alpha_pr  ls
  80  2.1407158e+01 3.02e-01 1.75e-03  -3.8 1.94e-01  -2.3 1.00e+00 1.00e+00h  1
  81  2.1406617e+01 1.97e+00 2.12e-03  -3.8 3.21e+00    -  1.00e+00 1.00e+00h  1
  82  2.1406111e+01 3.49e-01 1.74e-03  -3.8 1.80e+00    -  1.00e+00 1.00e+00h  1
  83  2.1406143e+01 1.08e-02 1.96e-04  -3.8 1.40e-01    -  1.00e+00 1.00e+00h  1
  84  2.1406013e+01 5.99e-03 7.89e-04  -3.8 3.04e-01    -  1.00e+00 1.00e+00h  1
  85  2.1405909e+01 4.15e-04 8.55e-05  -3.8 8.80e-02    -  1.00e+00 1.00e+00h  1
  86  2.1397440e+01 1.05e-02 3.30e-03  -5.7 3.05e-01    -  8.90e-01 6.84e-01h  1
  87  2.1394239e+01 3.34e-02 6.72e-03  -5.7 1.97e-01    -  9.12e-01 8.73e-01h  1
  88  2.1393796e+01 5.61e-02 1.57e-03  -5.7 7.18e-02    -  1.00e+00 1.00e+00h  1
  89  2.1393827e+01 7.48e-03 1.32e-03  -5.7 3.46e-02    -  1.00e+00 1.00e+00H  1
iter    objective    inf_pr   inf_du lg(mu)  ||d||  lg(rg) alpha_du alpha_pr  ls
  90  2.1393839e+01 2.87e-03 8.96e-04  -5.7 5.34e-02    -  1.00e+00 1.00e+00H  1
  91  2.1393775e+01 1.18e-01 2.44e-03  -5.7 8.38e-02    -  1.00e+00 1.00e+00h  1
  92  2.1393734e+01 1.65e-01 1.99e-03  -5.7 1.01e-01    -  1.00e+00 1.00e+00h  1
  93  2.1393659e+01 2.88e-01 6.45e-03  -5.7 1.58e-01    -  1.00e+00 1.00e+00h  1
  94  2.1393396e+01 2.92e-01 4.99e-03  -5.7 2.36e-01    -  9.93e-01 1.00e+00h  1
  95  2.1393230e+01 2.70e-01 6.06e-03  -5.7 5.63e-01    -  1.00e+00 2.11e-01h  1
  96  2.1393417e+01 6.34e-02 9.73e-04  -5.7 5.56e-02    -  9.42e-01 1.00e+00h  1
  97  2.1393862e+01 5.58e-04 1.62e-03  -5.7 9.33e-02    -  1.00e+00 1.00e+00H  1
  98  2.1393847e+01 5.43e-04 8.81e-04  -5.7 7.85e-02    -  1.00e+00 1.00e+00H  1
  99  2.1393871e+01 2.43e-04 2.57e-03  -5.7 9.11e-02    -  1.00e+00 1.00e+00H  1
iter    objective    inf_pr   inf_du lg(mu)  ||d||  lg(rg) alpha_du alpha_pr  ls
 100  2.1393822e+01 1.36e-02 1.92e-03  -5.7 1.48e-01    -  1.00e+00 2.50e-01h  3
 101  2.1393833e+01 1.77e-03 8.13e-04  -5.7 7.19e-02    -  1.00e+00 1.00e+00H  1
 102  2.1393800e+01 2.77e-02 1.57e-03  -5.7 7.87e-02    -  1.00e+00 5.00e-01h  2
 103  2.1393834e+01 2.10e-04 8.70e-04  -5.7 3.64e-02    -  1.00e+00 1.00e+00H  1
 104  2.1393799e+01 2.95e-02 1.63e-03  -5.7 8.20e-02    -  1.00e+00 5.00e-01h  2
 105  2.1393853e+01 3.04e-05 1.47e-03  -5.7 4.22e-02    -  1.00e+00 1.00e+00H  1
 106  2.1393797e+01 1.64e-02 1.67e-03  -5.7 1.10e-01    -  1.00e+00 4.26e-01h  2
 107  2.1393787e+01 4.36e-02 3.89e-04  -5.7 4.82e-02    -  1.00e+00 1.00e+00h  1
 108  2.1393825e+01 1.78e-03 1.67e-03  -5.7 3.68e-02    -  1.00e+00 1.00e+00H  1
 109  2.1393813e+01 4.04e-03 1.46e-03  -5.7 1.12e-01    -  1.00e+00 1.25e-01h  4
iter    objective    inf_pr   inf_du lg(mu)  ||d||  lg(rg) alpha_du alpha_pr  ls
 110  2.1393794e+01 4.21e-02 3.82e-04  -5.7 3.73e-02    -  1.00e+00 1.00e+00h  1
 111  2.1393817e+01 1.26e-03 1.43e-03  -5.7 3.14e-02    -  1.00e+00 1.00e+00H  1
 112  2.1393809e+01 4.12e-03 1.07e-03  -5.7 4.77e-02    -  1.00e+00 2.50e-01h  3
 113  2.1393800e+01 2.02e-02 2.73e-04  -5.7 2.20e-02    -  1.00e+00 1.00e+00h  1
 114  2.1393810e+01 4.02e-03 9.28e-04  -5.7 1.62e-02    -  1.00e+00 1.00e+00H  1
 115  2.1393816e+01 5.72e-04 4.83e-04  -5.7 3.17e-02    -  1.00e+00 1.00e+00H  1
 116  2.1393819e+01 1.66e-04 1.50e-03  -5.7 3.55e-02    -  1.00e+00 1.00e+00H  1
 117  2.1393807e+01 5.05e-03 1.12e-03  -5.7 5.68e-02    -  1.00e+00 2.50e-01h  3
 118  2.1393799e+01 2.36e-02 3.03e-04  -5.7 2.49e-02    -  1.00e+00 1.00e+00h  1
 119  2.1393811e+01 3.93e-03 1.04e-03  -5.7 2.08e-02    -  1.00e+00 1.00e+00H  1
iter    objective    inf_pr   inf_du lg(mu)  ||d||  lg(rg) alpha_du alpha_pr  ls
 120  2.1393814e+01 5.84e-04 4.48e-04  -5.7 3.04e-02    -  1.00e+00 1.00e+00H  1
 121  2.1393818e+01 4.69e-04 1.46e-03  -5.7 3.25e-02    -  1.00e+00 1.00e+00H  1
 122  2.1393836e+01 2.77e-05 1.33e-03  -5.7 4.55e-02    -  1.00e+00 1.00e+00H  1
 123  2.1393831e+01 3.65e-05 1.23e-03  -5.7 7.71e-02    -  1.00e+00 6.25e-02h  5
 124  2.1393827e+01 6.64e-05 1.15e-03  -5.7 6.84e-02    -  1.00e+00 6.25e-02h  5
 125  2.1393814e+01 3.32e-04 8.19e-04  -5.7 6.11e-02    -  1.00e+00 2.50e-01h  3
 126  2.1393797e+01 2.00e-02 6.17e-04  -5.7 4.12e-02    -  1.00e+00 1.00e+00h  1
 127  2.1393822e+01 1.14e-04 6.82e-04  -5.7 3.16e-02    -  8.25e-01 1.00e+00H  1
 128  2.1393810e+01 4.76e-04 5.98e-04  -5.7 5.68e-02    -  1.00e+00 2.50e-01h  3
 129  2.1393810e+01 2.48e-04 9.86e-04  -5.7 3.32e-02    -  1.00e+00 1.00e+00H  1
iter    objective    inf_pr   inf_du lg(mu)  ||d||  lg(rg) alpha_du alpha_pr  ls
 130  2.1393817e+01 5.21e-05 5.09e-04  -5.7 3.21e-02    -  1.00e+00 1.00e+00H  1
 131  2.1393809e+01 1.89e-03 3.75e-04  -5.7 4.04e-02    -  1.00e+00 2.50e-01h  3
 132  2.1393810e+01 2.07e-04 9.39e-04  -5.7 2.57e-02    -  1.00e+00 1.00e+00H  1
 133  2.1393816e+01 3.25e-05 4.90e-04  -5.7 3.19e-02    -  1.00e+00 1.00e+00H  1
 134  2.1393804e+01 3.55e-03 6.98e-04  -5.7 3.66e-02    -  1.00e+00 5.00e-01h  2
 135  2.1393803e+01 6.70e-04 6.18e-05  -5.7 1.58e-02    -  1.00e+00 1.00e+00h  1
 136  2.1393804e+01 7.22e-05 9.12e-06  -5.7 7.18e-04    -  1.00e+00 1.00e+00h  1
 137  2.1393805e+01 1.59e-06 3.58e-07  -5.7 6.56e-05    -  1.00e+00 1.00e+00h  1
 138  2.1393675e+01 7.87e-05 2.62e-05  -7.0 1.60e-02    -  1.00e+00 9.68e-01h  1
 139  2.1393670e+01 1.91e-05 5.22e-07  -7.0 5.87e-03    -  1.00e+00 1.00e+00f  1
iter    objective    inf_pr   inf_du lg(mu)  ||d||  lg(rg) alpha_du alpha_pr  ls
 140  2.1393670e+01 1.97e-06 5.37e-08  -7.0 1.86e-03    -  1.00e+00 1.00e+00h  1
 141  2.1393670e+01 4.50e-08 1.30e-09  -7.0 2.80e-04    -  1.00e+00 1.00e+00h  1

Number of Iterations....: 141

                                   (scaled)                 (unscaled)
Objective...............:   2.1393670091549644e+01    2.1393670091549644e+01
Dual infeasibility......:   1.2989145126831783e-09    1.2989145126831783e-09
Constraint violation....:   4.1166827864079527e-08    4.4987111341709962e-08
Variable bound violation:   0.0000000000000000e+00    0.0000000000000000e+00
Complementarity.........:   9.1152894534135980e-08    9.1152894534135980e-08
Overall NLP error.......:   9.1152894534135980e-08    9.1152894534135980e-08


Number of objective function evaluations             = 328
Number of objective gradient evaluations             = 142
Number of equality constraint evaluations            = 328
Number of inequality constraint evaluations          = 328
Number of equality constraint Jacobian evaluations   = 142
Number of inequality constraint Jacobian evaluations = 142
Number of Lagrangian Hessian evaluations             = 141
Total seconds in IPOPT                               = 17.593

EXIT: Optimal Solution Found.
      solver  :   t_proc      (avg)   t_wall      (avg)    n_eval
       nlp_f  |   8.05ms ( 24.53us)   8.05ms ( 24.53us)       328
       nlp_g  |   1.01 s (  3.08ms)   1.02 s (  3.09ms)       328
  nlp_grad_f  |   5.61ms ( 39.24us)   5.62ms ( 39.31us)       143
  nlp_hess_l  |  11.94 s ( 84.67ms)  11.98 s ( 84.98ms)       141
   nlp_jac_g  |   3.14 s ( 21.99ms)   3.16 s ( 22.08ms)       143
       total  |  17.53 s ( 17.53 s)  17.59 s ( 17.59 s)         1
  Success: True
  Cost: 21.3937
  Iterations: 141
  Solve time: 29.09 s
  Max obstacle slack: 0.0000e+00
  Min obstacle clearance: inf m
  Accepted: True

Accepted attempt: baseline

Generating plots...
  Saved: /run/media/saveas/Secondary-Storage/Masters/CS234/CS234_Reinforcement_Learning/Final Project/CS234_Final_Project/results/trajectory_optimization/nlp/TRACK5_330m/N120/ipopt_single_stage_trajectory.png
  Saved: /run/media/saveas/Secondary-Storage/Masters/CS234/CS234_Reinforcement_Learning/Final Project/CS234_Final_Project/results/trajectory_optimization/nlp/TRACK5_330m/N120/ipopt_single_stage_states.png
  Saved: /run/media/saveas/Secondary-Storage/Masters/CS234/CS234_Reinforcement_Learning/Final Project/CS234_Final_Project/results/trajectory_optimization/nlp/TRACK5_330m/N120/ipopt_single_stage_controls.png

Generating animation...
  Saved: /run/media/saveas/Secondary-Storage/Masters/CS234/CS234_Reinforcement_Learning/Final Project/CS234_Final_Project/results/trajectory_optimization/nlp/TRACK5_330m/N120/ipopt_single_stage_animation.gif

======================================================================
SUMMARY
======================================================================
Selected attempt: baseline
Attempt                    N      Subs   Clear    Iters    Time [s]   Cost [s]   Max Sigma    Min Clear [m]  Accepted
-----------------------------------------------------------------------------------------------------------------------------
baseline                   120    11     0.300    141      29.09      21.3937    0.000e+00    inf            True

All outputs saved to: /run/media/saveas/Secondary-Storage/Masters/CS234/CS234_Reinforcement_Learning/Final Project/CS234_Final_Project/results/trajectory_optimization/nlp/TRACK5_330m/N120
